 vasp.5.3.5 31Mar14 (build Jun 12 2014 12:38:11) complex

 executed on Abel.uio.no,ifort-20 date 2018.10.11  14:48:49

 INCAR:
 POTCAR:   PAW_PBE Ru_pv 06Sep2000
 POTCAR:    PAW_PBE Li_sv 10Sep2004
 POTCAR:   PAW_PBE O 08Apr2002
 POTCAR:   PAW_PBE Ru_pv 06Sep2000
   VRHFIN =Ru: 4p5s4d

   TITEL  = PAW_PBE Ru_pv 06Sep2000
   POMASS =  101.070; ZVAL   =   14.000    mass and valenz
   ENMAX  =  230.429; ENMIN  =  172.822 eV
   QCUT   =   -4.115; QGAM   =    8.231    optimization parameters

   Description
     l     E      TYP  RCUT    TYP  RCUT
     1   .000     23  2.500
     1  -.500     23  2.500
     2   .000     23  2.500
     2   .000     23  2.500
     0   .000     23  2.500
     0   .000     23  2.500
     3   .000      7   .000

 POTCAR:    PAW_PBE Li_sv 10Sep2004
   VRHFIN =Li: 1s2s2p

   TITEL  = PAW_PBE Li_sv 10Sep2004
   POMASS =    7.010; ZVAL   =    3.000    mass and valenz
   ENMAX  =  499.034; ENMIN  =  374.276 eV
   QCUT   =   -6.056; QGAM   =   12.112    optimization parameters

[...]

 POTCAR:   PAW_PBE O 08Apr2002
   VRHFIN =O: s2p4

   TITEL  = PAW_PBE O 08Apr2002
   POMASS =   16.000; ZVAL   =    6.000    mass and valenz
   ENMAX  =  400.000; ENMIN  =  300.000 eV
   QCUT   =   -5.520; QGAM   =   11.041    optimization parameters

   Description
     l     E      TYP  RCUT    TYP  RCUT
     0   .000     23  1.200
     0  -.700     23  1.200
     1   .000     23  1.520
     1   .600     23  1.520
     2   .000      7  1.500

 PAW_PBE Ru_pv 06Sep2000                :
  PAW_PBE Li_sv 10Sep2004               :
 PAW_PBE O 08Apr2002                    :

 POSCAR: Li2 O3 Ru1
  positions in direct lattice
  velocities in cartesian coordinates
 exchange correlation table for  LEXCH =        8
   RHO(1)=    0.500       N(1)  =     2000
   RHO(2)=  100.500       N(2)  =     4000

 VTST: version 3.1, (03/28/14)

 CHAIN: initializing optimizer

 OPT: Using VASP QUASI-newton optimizer
 CHAIN: Read ICHAIN            0

 POSCAR: Li2 O3 Ru1
  positions in direct lattice
  velocities in cartesian coordinates

 ion  position               nearest neighbor table
   1  0.248  0.082  0.000-  38 1.98  25 1.99  41 2.04  42 2.04  37 2.10  30 2.10  13 2.96  12 2.97
                            20 2.98   2 2.99   6 3.01   2 3.02
   2  0.752  0.918  1.000-  37 1.98  26 1.99  42 2.04  41 2.04  38 2.10  29 2.10  14 2.96  11 2.97
                            19 2.98   1 2.99   5 3.01   1 3.02
   3  0.752  0.082  0.500-  40 1.98  27 1.99  43 2.04  44 2.04  39 2.10  32 2.10  13 2.96  10 2.97
                            20 2.98   4 2.99   8 3.01   4 3.02
   4  0.248  0.918  0.500-  39 1.98  28 1.99  44 2.04  43 2.04  40 2.10  31 2.10  14 2.96   9 2.97
                            19 2.98   3 2.99   7 3.01   3 3.02
   5  0.748  0.582  0.000-  34 1.98  29 1.99  45 2.04  46 2.04  33 2.10  26 2.10  15 2.96  11 2.97
                            18 2.98   6 2.99   2 3.01   6 3.02
   6  0.252  0.418  1.000-  33 1.98  30 1.99  46 2.04  45 2.04  34 2.10  25 2.10  16 2.96  12 2.97
                            17 2.98   5 2.99   1 3.01   5 3.02
   7  0.252  0.582  0.500-  36 1.98  31 1.99  47 2.04  48 2.04  35 2.10  28 2.10  15 2.96   9 2.97
                            18 2.98   8 2.99   4 3.01   8 3.02
   8  0.748  0.418  0.500-  35 1.98  32 1.99  48 2.04  47 2.04  36 2.10  27 2.10  16 2.96  10 2.97
                            17 2.98   7 2.99   3 3.01   7 3.02
   9  0.250  0.250  0.500-  44 2.12  47 2.12  39 2.15  36 2.15  27 2.18  32 2.18   7 2.97   4 2.97

  10  0.750  0.750  0.500-  43 2.12  48 2.12  40 2.15  35 2.15  31 2.18  28 2.18   8 2.97   3 2.97

[...]

  21  0.000  0.753  0.250-  29 2.11  31 2.11  41 2.15  43 2.15  35 2.25  33 2.25
  22  0.000  0.247  0.750-  30 2.11  32 2.11  44 2.15  42 2.15  34 2.25  36 2.25
  23  0.500  0.253  0.250-  25 2.11  27 2.11  45 2.15  47 2.15  37 2.25  39 2.25
  24  0.500  0.747  0.750-  28 2.11  26 2.11  46 2.15  48 2.15  40 2.25  38 2.25
  25  0.140  0.243  0.119-   1 1.99   6 2.10  23 2.11  13 2.12  17 2.17  11 2.18
  26  0.860  0.757  0.881-   2 1.99   5 2.10  24 2.11  14 2.12  18 2.17  12 2.18
  27  0.860  0.243  0.381-   3 1.99   8 2.10  23 2.11  13 2.12  17 2.17   9 2.18
  28  0.140  0.757  0.619-   4 1.99   7 2.10  24 2.11  14 2.12  18 2.17  10 2.18
  29  0.640  0.743  0.119-   5 1.99   2 2.10  21 2.11  15 2.12  19 2.17  12 2.18
  30  0.360  0.257  0.881-   6 1.99   1 2.10  22 2.11  16 2.12  20 2.17  11 2.18
  31  0.360  0.743  0.381-   7 1.99   4 2.10  21 2.11  15 2.12  19 2.17  10 2.18
  32  0.640  0.257  0.619-   8 1.99   3 2.10  22 2.11  16 2.12  20 2.17   9 2.18
  33  0.119  0.570  0.116-   6 1.98   5 2.10  17 2.11  12 2.15  15 2.21  21 2.25
  34  0.881  0.430  0.884-   5 1.98   6 2.10  18 2.11  11 2.15  16 2.21  22 2.25
  35  0.881  0.570  0.384-   8 1.98   7 2.10  17 2.11  10 2.15  15 2.21  21 2.25
  36  0.119  0.430  0.616-   7 1.98   8 2.10  18 2.11   9 2.15  16 2.21  22 2.25
  37  0.619  0.070  0.116-   2 1.98   1 2.10  19 2.11  11 2.15  13 2.21  23 2.25
  38  0.381  0.930  0.884-   1 1.98   2 2.10  20 2.11  12 2.15  14 2.21  24 2.25
  39  0.381  0.070  0.384-   4 1.98   3 2.10  19 2.11   9 2.15  13 2.21  23 2.25
  40  0.619  0.930  0.616-   3 1.98   4 2.10  20 2.11  10 2.15  14 2.21  24 2.25
  41  0.111  0.922  0.117-   1 2.04   2 2.04  13 2.11  12 2.12  21 2.15  19 2.24
  42  0.889  0.078  0.883-   2 2.04   1 2.04  14 2.11  11 2.12  22 2.15  20 2.24
  43  0.889  0.922  0.383-   3 2.04   4 2.04  13 2.11  10 2.12  21 2.15  19 2.24
  44  0.111  0.078  0.617-   4 2.04   3 2.04  14 2.11   9 2.12  22 2.15  20 2.24
  45  0.611  0.422  0.117-   5 2.04   6 2.04  15 2.11  11 2.12  23 2.15  17 2.24
  46  0.389  0.578  0.883-   6 2.04   5 2.04  16 2.11  12 2.12  24 2.15  18 2.24
  47  0.389  0.422  0.383-   7 2.04   8 2.04  15 2.11   9 2.12  23 2.15  17 2.24
  48  0.611  0.578  0.617-   8 2.04   7 2.04  16 2.11  10 2.12  24 2.15  18 2.24

  LATTYP: Found a simple monoclinic cell.
 ALAT       =    10.3780568410
 B/A-ratio  =     0.8629249759
 C/A-ratio  =     1.8828508180
 COS(beta)  =    -0.9679523850

  Lattice vectors:

 A1 = (  -3.5313324403,   0.0000000000,  -9.7587783555)
 A2 = (   0.0000000000,  -8.9554844498,   0.0000000000)
 A3 = (   1.8214749044,   0.0000000000,  19.4552521339)

Analysis of symmetry for initial positions (statically):
 Subroutine PRICEL returns following result:

  LATTYP: Found a base centered monoclinic cell.
 ALAT       =     5.2415601284
 B/A-ratio  =     1.7085532228
 C/A-ratio  =     2.5123348121
 COS(beta)  =    -0.3409582028

[...]

   2 primitive cells build up your supercell.

 Routine SETGRP: Setting up the symmetry group for a
 simple monoclinic supercell.

 Subroutine GETGRP returns: Found  4 space group operations
 (whereof  2 operations were pure point group operations)
 out of a pool of  4 trial point group operations.

The static configuration has the point symmetry S_2 .
 The point group associated with its full space group is C_2h.

Analysis of symmetry for dynamics (positions and initial velocities):
 Subroutine PRICEL returns following result:

[...]

 Routine SETGRP: Setting up the symmetry group for a
 simple monoclinic supercell.

 Subroutine GETGRP returns: Found  4 space group operations
 (whereof  2 operations were pure point group operations)
 out of a pool of  4 trial point group operations.

The dynamic configuration has the point symmetry S_2 .
 The point group associated with its full space group is C_2h.

Analysis of magnetic symmetry:
 Subroutine PRICEL returns following result:

  LATTYP: Found a base centered monoclinic cell.
 ALAT       =     5.2415601284
 B/A-ratio  =     1.7085532228
 C/A-ratio  =     2.5123348121
 COS(beta)  =    -0.3409582028

  Lattice vectors:

 A1 = (   2.6205949095,   4.4777422876,   0.0311522876)
 A2 = (   2.6205949095,  -4.4777421622,   0.0311522876)
 A3 = (  -8.7725221021,  -0.0000002508,  -9.8210829289)

   2 primitive cells build up your supercell.

 Subroutine MAGSYM returns: Found  4 space group operations
 (whereof  2 operations were pure point group operations)
 out of a pool of  4 trial space group operations
 (whereof  2 operations were pure point group operations)
 and found also     2 'primitive' translations

The magnetic configuration has the point symmetry S_2 .
 The point group associated with its full space group is C_2h.

 KPOINTS: K-Points

Automatic generation of k-mesh.
Space group operators:
 irot       det(A)        alpha          n_x          n_y          n_z        tau_x        tau_y        tau_z
    1     1.000000     0.000000     1.000000     0.000000     0.000000     0.000000     0.000000     0.000000
    2    -1.000000     0.000000     1.000000     0.000000     0.000000     0.000000     0.000000     0.000000
    3     1.000000   179.999999     0.000000     1.000000     0.000000    -1.000000    -0.000000    -0.500000
    4    -1.000000   179.999999     0.000000     1.000000     0.000000     0.000000    -0.000000    -0.500000

 Subroutine IBZKPT returns following result:

 Found     16 irreducible k-points:

 Following reciprocal coordinates:
            Coordinates               Weight
  0.000000  0.000000  0.000000      1.000000
  0.200000  0.000000  0.000000      2.000000
  0.400000  0.000000  0.000000      2.000000
  0.000000  0.333333  0.000000      2.000000
  0.200000  0.333333  0.000000      4.000000
  0.400000  0.333333  0.000000      4.000000
 -0.000000  0.000000  0.333333      2.000000
  0.200000  0.000000  0.333333      2.000000
  0.400000  0.000000  0.333333      2.000000
 -0.400000  0.000000  0.333333      2.000000
 -0.200000  0.000000  0.333333      2.000000
 -0.000000  0.333333  0.333333      4.000000
  0.200000  0.333333  0.333333      4.000000
  0.400000  0.333333  0.333333      4.000000
 -0.400000  0.333333  0.333333      4.000000
 -0.200000  0.333333  0.333333      4.000000

 Following cartesian coordinates:
            Coordinates               Weight
  0.000000  0.000000  0.000000      1.000000
  0.038079  0.000000  0.006715      2.000000
  0.076159  0.000000  0.013430      2.000000
  0.000000  0.037221  0.000000      2.000000
  0.038079  0.037221  0.006715      4.000000
  0.076159  0.037221  0.013430      4.000000
 -0.000408  0.000000  0.034305      2.000000
  0.037672  0.000000  0.041020      2.000000
  0.075751  0.000000  0.047735      2.000000
 -0.076567  0.000000  0.020875      2.000000
 -0.038487  0.000000  0.027590      2.000000
 -0.000408  0.037221  0.034305      4.000000
  0.037672  0.037221  0.041020      4.000000
  0.075751  0.037221  0.047735      4.000000
 -0.076567  0.037221  0.020875      4.000000
 -0.038487  0.037221  0.027590      4.000000

 I would recommend the setting:
   dimension x,y,z NGX =    31 NGY =   54 NGZ =   59
 SYSTEM =  Li2RuO3
 POSCAR =  Li2 O3 Ru1

 Startparameter for this run:
   NWRITE =      2    write-flag & timer
   PREC   = normal    normal or accurate (medium, high low for compatibility)
   ISTART =      0    job   : 0-new  1-cont  2-samecut
   ICHARG =      2    charge: 1-file 2-atom 10-const
   ISPIN  =      2    spin polarized calculation?
   LNONCOLLINEAR =      F non collinear calculations
   LSORBIT =      F    spin-orbit coupling
   INIWAV =      1    electr: 0-lowe 1-rand  2-diag
[...]
     43     -14.4902      1.00000
     44     -14.3361      1.00000
     45     -14.1193      1.00000
     46     -14.0787      1.00000
     47     -14.0353      1.00000
     48     -13.9144      1.00000
     49     -13.8565      1.00000
     50     -13.8549      1.00000
     51     -13.8499      1.00000
     52     -13.8193      1.00000
     53     -13.7993      1.00000
     54     -13.7631      1.00000
     55     -13.7351      1.00000
     56     -13.7142      1.00000
     57     -13.6682      1.00000
     58     -13.6552      1.00000
     59     -13.6155      1.00000
     60     -13.5844      1.00000
[...]
    170       7.3311      0.00000
    171       7.4000      0.00000
    172       7.4998      0.00000
    173       7.5760      0.00000
    174       7.6137      0.00000
    175       7.6390      0.00000
    176       7.7446      0.00000
    177       9.9901      0.00000
    178      10.6421      0.00000
    179      10.8506      0.00000
    180      11.1281      0.00000
    181      11.6475      0.00000
    182      11.8218      0.00000
    183      11.8562      0.00000
    184      11.9467      0.00000

[...]

 soft charge-density along one line, spin component           2
         0         1         2         3         4         5         6         7         8         9
 total charge-density along one line

------------------------ aborting loop because EDIFF is reached ----------------------------------------

[...]

  FORCE on cell =-STRESS in cart. coord.  units (eV):
  Direction    XX          YY          ZZ          XY          YZ          ZX
  Alpha Z  1442.12593  1442.12593  1442.12593
  Ewald   -5674.77085 -5633.26891 -8821.55277    -0.00008     0.00003  -135.00691
  Hartree  3248.44564  3185.29035   956.39529    -0.00001     0.00000   -14.21674
  E(xc)   -1502.81172 -1502.39846 -1503.89153    -0.00000     0.00000    -0.43660
  Local   -2575.94236 -2513.87570  2855.10758     0.00007    -0.00002   112.04109
  n-local -1058.82440 -1047.10985 -1060.46235     0.02349     0.01856   -10.53026
  augment  1158.94010  1140.57587  1154.27221     0.00000    -0.00000    16.02098
  Kinetic  4962.81235  4928.64212  4977.97856    -0.08572    -0.06234    32.12245
  Fock        0.00000     0.00000     0.00000     0.00000     0.00000     0.00000
  Total      -0.02531    -0.01865    -0.02709     0.00000     0.00000    -0.00600
  in kB      -0.08898    -0.06557    -0.09524     0.00000     0.00000    -0.02108

 VOLUME and BASIS-vectors are now :
  energy-cutoff  :      600.00
  volume of cell :      455.71
      direct lattice vectors                 reciprocal lattice vectors
     5.238445056  0.000000000  0.061334076     0.190502775  0.000000000  0.033613968
     0.000000000  8.954213737  0.000000000     0.000000000  0.111679264  0.000000000
    -1.710743666  0.000000000  9.695416240    -0.001205138  0.000000000  0.102928878

  length of vectors
     5.238804107  8.954213737  9.845188670     0.193445615  0.111679264  0.102935933

 FORCES acting on ions
    electron-ion (+dipol)            ewald-force                    non-local-force                 convergence-correction
   -.262E+02 -.182E+02 -.478E+01   0.256E+02 0.177E+02 0.481E+01   0.618E+00 0.447E+00 -.301E-01   -.317E-03 -.143E-03 -.566E-04
   0.262E+02 0.182E+02 0.478E+01   -.256E+02 -.177E+02 -.481E+01   -.618E+00 -.447E+00 0.301E-01   0.317E-03 0.143E-03 0.566E-04
   0.262E+02 -.182E+02 0.478E+01   -.256E+02 0.177E+02 -.481E+01   -.618E+00 0.447E+00 0.301E-01   0.317E-03 -.143E-03 0.566E-04
   -.262E+02 0.182E+02 -.478E+01   0.256E+02 -.177E+02 0.481E+01   0.618E+00 -.447E+00 -.301E-01   -.317E-03 0.143E-03 -.566E-04
   -.262E+02 -.182E+02 -.478E+01   0.256E+02 0.177E+02 0.481E+01   0.618E+00 0.447E+00 -.301E-01   -.317E-03 -.143E-03 -.566E-04
   0.262E+02 0.182E+02 0.478E+01   -.256E+02 -.177E+02 -.481E+01   -.618E+00 -.447E+00 0.301E-01   0.317E-03 0.143E-03 0.566E-04
   0.262E+02 -.182E+02 0.478E+01   -.256E+02 0.177E+02 -.481E+01   -.618E+00 0.447E+00 0.301E-01   0.317E-03 -.143E-03 0.566E-04
   -.262E+02 0.182E+02 -.478E+01   0.256E+02 -.177E+02 0.481E+01   0.618E+00 -.447E+00 -.301E-01   -.317E-03 0.143E-03 -.566E-04
   0.191E-04 0.110E-04 -.123E-04   0.775E-05 0.568E-06 -.955E-05   0.119E-21 -.106E-21 0.529E-22   -.447E-10 -.512E-10 0.531E-10
   0.217E-04 0.897E-05 -.122E-04   0.468E-05 0.432E-05 -.866E-05   -.794E-22 -.106E-21 0.529E-22   -.309E-10 -.843E-10 0.512E-10
   0.228E-04 0.879E-05 -.172E-04   -.905E-05 0.639E-05 0.151E-04   -.132E-21 -.132E-21 -.212E-21   -.167E-10 0.568E-10 -.691E-10
   0.202E-04 0.676E-05 -.173E-04   -.598E-05 0.101E-04 0.142E-04   0.794E-22 -.106E-21 -.212E-21   -.309E-10 0.227E-10 -.664E-10
   0.210E-04 -.296E+02 -.132E-04   -.696E-05 0.291E+02 -.394E-05   -.191E-20 0.450E+00 -.127E-20   0.297E-10 0.487E-04 0.101E-09
   0.214E-04 0.296E+02 -.950E-05   -.523E-05 -.291E+02 -.267E-05   0.847E-21 -.450E+00 0.000E+00   -.129E-10 -.487E-04 0.543E-10
   0.201E-04 -.296E+02 -.132E-04   -.218E-06 0.291E+02 -.799E-06   0.953E-21 0.450E+00 -.847E-21   0.316E-11 0.487E-04 0.645E-10
   0.205E-04 0.296E+02 -.959E-05   0.152E-05 -.291E+02 0.470E-06   -.212E-21 -.450E+00 -.424E-21   -.376E-10 -.487E-04 0.181E-10
   0.197E-04 0.294E+02 -.978E-05   0.761E-05 -.288E+02 -.240E-05   -.402E-20 -.657E+00 -.127E-20   -.375E-10 0.346E-04 0.291E-10
   0.193E-04 -.294E+02 -.129E-04   0.542E-05 0.288E+02 -.110E-05   0.529E-21 0.657E+00 0.000E+00   -.187E-10 -.346E-04 -.189E-10
   0.208E-04 0.294E+02 -.987E-05   -.593E-06 -.288E+02 -.373E-05   -.238E-20 -.657E+00 -.212E-21   0.328E-10 0.346E-04 0.496E-10
   0.204E-04 -.294E+02 -.130E-04   -.278E-05 0.288E+02 -.243E-05   -.206E-20 0.657E+00 -.169E-20   0.524E-10 -.346E-04 0.119E-11
   0.250E-04 0.635E+01 -.162E-04   -.122E-05 -.602E+01 -.144E-05   0.339E-20 -.324E+00 0.000E+00   0.377E-10 -.544E-04 0.612E-10
   0.246E-04 -.635E+01 -.115E-04   -.102E-06 0.602E+01 -.955E-06   0.254E-20 0.324E+00 0.000E+00   0.469E-10 0.544E-04 -.119E-10
   0.248E-04 0.635E+01 -.163E-04   0.748E-06 -.602E+01 -.824E-07   -.762E-20 -.324E+00 -.169E-19   0.450E-10 -.544E-04 0.369E-10
   0.244E-04 -.635E+01 -.117E-04   0.187E-05 0.602E+01 0.407E-06   0.847E-20 0.324E+00 0.339E-20   0.556E-10 0.544E-04 -.363E-10
   0.125E+03 -.215E+02 -.226E+03   -.133E+03 0.232E+02 0.239E+03   0.881E+01 -.169E+01 -.127E+02   0.105E-03 -.108E-03 -.319E-04
   -.125E+03 0.215E+02 0.226E+03   0.133E+03 -.232E+02 -.239E+03   -.881E+01 0.169E+01 0.127E+02   -.105E-03 0.108E-03 0.319E-04
   -.125E+03 -.215E+02 0.226E+03   0.133E+03 0.232E+02 -.239E+03   -.881E+01 -.169E+01 0.127E+02   -.105E-03 -.108E-03 0.319E-04
   0.125E+03 0.215E+02 -.226E+03   -.133E+03 -.232E+02 0.239E+03   0.881E+01 0.169E+01 -.127E+02   0.105E-03 0.108E-03 -.319E-04
   0.125E+03 -.215E+02 -.226E+03   -.133E+03 0.232E+02 0.239E+03   0.881E+01 -.169E+01 -.127E+02   0.105E-03 -.108E-03 -.319E-04
   -.125E+03 0.215E+02 0.226E+03   0.133E+03 -.232E+02 -.239E+03   -.881E+01 0.169E+01 0.127E+02   -.105E-03 0.108E-03 0.319E-04
   -.125E+03 -.215E+02 0.226E+03   0.133E+03 0.232E+02 -.239E+03   -.881E+01 -.169E+01 0.127E+02   -.105E-03 -.108E-03 0.319E-04
   0.125E+03 0.215E+02 -.226E+03   -.133E+03 -.232E+02 0.239E+03   0.881E+01 0.169E+01 -.127E+02   0.105E-03 0.108E-03 -.319E-04
   -.372E+02 -.120E+03 -.215E+03   0.397E+02 0.129E+03 0.229E+03   -.247E+01 -.906E+01 -.139E+02   -.175E-03 -.930E-04 -.485E-04
   0.372E+02 0.120E+03 0.215E+03   -.397E+02 -.129E+03 -.229E+03   0.247E+01 0.906E+01 0.139E+02   0.175E-03 0.930E-04 0.485E-04
   0.372E+02 -.120E+03 0.215E+03   -.397E+02 0.129E+03 -.229E+03   0.247E+01 -.906E+01 0.139E+02   0.175E-03 -.930E-04 0.485E-04
   -.372E+02 0.120E+03 -.215E+03   0.397E+02 -.129E+03 0.229E+03   -.247E+01 0.906E+01 -.139E+02   -.175E-03 0.930E-04 -.485E-04
   -.372E+02 -.120E+03 -.215E+03   0.397E+02 0.129E+03 0.229E+03   -.247E+01 -.906E+01 -.139E+02   -.175E-03 -.930E-04 -.485E-04
   0.372E+02 0.120E+03 0.215E+03   -.397E+02 -.129E+03 -.229E+03   0.247E+01 0.906E+01 0.139E+02   0.175E-03 0.930E-04 0.485E-04
   0.372E+02 -.120E+03 0.215E+03   -.397E+02 0.129E+03 -.229E+03   0.247E+01 -.906E+01 0.139E+02   0.175E-03 -.930E-04 0.485E-04
   -.372E+02 0.120E+03 -.215E+03   0.397E+02 -.129E+03 0.229E+03   -.247E+01 0.906E+01 -.139E+02   -.175E-03 0.930E-04 -.485E-04
   -.656E+02 0.115E+03 -.213E+03   0.701E+02 -.123E+03 0.227E+03   -.446E+01 0.816E+01 -.137E+02   -.218E-03 0.659E-04 -.466E-03
   0.656E+02 -.115E+03 0.213E+03   -.701E+02 0.123E+03 -.227E+03   0.446E+01 -.816E+01 0.137E+02   0.218E-03 -.659E-04 0.466E-03
   0.656E+02 0.115E+03 0.213E+03   -.701E+02 -.123E+03 -.227E+03   0.446E+01 0.816E+01 0.137E+02   0.218E-03 0.659E-04 0.466E-03
   -.656E+02 -.115E+03 -.213E+03   0.701E+02 0.123E+03 0.227E+03   -.446E+01 -.816E+01 -.137E+02   -.218E-03 -.659E-04 -.466E-03
   -.656E+02 0.115E+03 -.213E+03   0.701E+02 -.123E+03 0.227E+03   -.446E+01 0.816E+01 -.137E+02   -.218E-03 0.659E-04 -.466E-03
   0.656E+02 -.115E+03 0.213E+03   -.701E+02 0.123E+03 -.227E+03   0.446E+01 -.816E+01 0.137E+02   0.218E-03 -.659E-04 0.466E-03
   0.656E+02 0.115E+03 0.213E+03   -.701E+02 -.123E+03 -.227E+03   0.446E+01 0.816E+01 0.137E+02   0.218E-03 0.659E-04 0.466E-03
   -.656E+02 -.115E+03 -.213E+03   0.701E+02 0.123E+03 0.227E+03   -.446E+01 -.816E+01 -.137E+02   -.218E-03 -.659E-04 -.466E-03
   0.186E-02 0.854E-03 -.142E-02   0.114E-12 -.142E-13 0.284E-12   0.000E+00 -.178E-14 0.178E-14   0.320E-09 0.152E-09 -.133E-08

 POSITION                                       TOTAL-FORCE (eV/Angst)
      1.29871      0.73494      0.01597        -0.000702     -0.000494      0.000056
      2.22899      8.21928      9.74078         0.000702      0.000494     -0.000056
      3.08437      0.73494      4.89307         0.000702     -0.000494     -0.000056
      0.44334      8.21928      4.86368        -0.000702      0.000494      0.000056
      3.91793      5.21204      0.04664        -0.000702     -0.000494      0.000056
     -0.39023      3.74217      9.71011         0.000702      0.000494     -0.000056
      0.46514      5.21204      4.86241         0.000702     -0.000494     -0.000056
      3.06256      3.74217      4.89435        -0.000702      0.000494      0.000056
      0.45424      2.23855      4.86304         0.000000     -0.000000      0.000000
      3.07346      6.71566      4.89371         0.000000     -0.000000      0.000000
      3.92883      2.23855      0.04600         0.000000     -0.000000      0.000000
      1.30961      6.71566      0.01533         0.000000     -0.000000      0.000000
     -0.42769      0.76483      2.42385         0.000000      0.000629      0.000000
     -1.28306      8.18938      7.27156         0.000000     -0.000629      0.000000
      2.19154      5.24194      2.45452         0.000000      0.000629      0.000000
      1.33616      3.71227      7.30223         0.000000     -0.000629      0.000000
     -0.42769      3.66227      2.42385         0.000000     -0.000161      0.000000
     -1.28306      5.29194      7.27156         0.000000      0.000161      0.000000
      2.19154      8.13938      2.45452         0.000000     -0.000161      0.000000
      1.33616      0.81483      7.30223         0.000000      0.000161      0.000000
     -0.42769      6.73882      2.42385         0.000000      0.000566      0.000000
     -1.28306      2.21540      7.27156         0.000000     -0.000566      0.000000
      2.19154      2.26171      2.45452         0.000000      0.000566      0.000000
      1.33616      6.69250      7.30223         0.000000     -0.000566      0.000000
      0.52901      2.17507      1.15921         0.000057      0.000112     -0.000114
      2.99869      6.77914      8.59754        -0.000057     -0.000112      0.000114
      3.85406      2.17507      3.74983        -0.000057      0.000112      0.000114
     -0.32636      6.77914      6.00692         0.000057     -0.000112     -0.000114
      3.14823      6.65218      1.18988         0.000057      0.000112     -0.000114
      0.37947      2.30203      8.56687        -0.000057     -0.000112      0.000114
      1.23484      6.65218      3.71917        -0.000057      0.000112      0.000114
      2.29286      2.30203      6.03758         0.000057     -0.000112     -0.000114
      0.42715      5.10486      1.13602         0.000237     -0.000132     -0.000181
      3.10055      3.84935      8.62073        -0.000237      0.000132      0.000181
      3.95592      5.10486      3.77302        -0.000237     -0.000132      0.000181
     -0.42822      3.84935      5.98373         0.000237      0.000132     -0.000181
      3.04637      0.62775      1.16668         0.000237     -0.000132     -0.000181
      0.48133      8.32646      8.59007        -0.000237      0.000132      0.000181
      1.33670      0.62775      3.74236        -0.000237     -0.000132      0.000181
      2.19100      8.32646      6.01439         0.000237      0.000132     -0.000181
      0.38522      8.25602      1.13804         0.000163      0.000364      0.000218
      3.14248      0.69820      8.61871        -0.000163     -0.000364     -0.000218
      3.99785      8.25602      3.77101        -0.000163      0.000364     -0.000218
     -0.47015      0.69820      5.98574         0.000163     -0.000364      0.000218
      3.00444      3.77891      1.16870         0.000163      0.000364      0.000218
      0.52326      5.17530      8.58805        -0.000163     -0.000364     -0.000218
      1.37863      3.77891      3.74034        -0.000163      0.000364     -0.000218
      2.14907      5.17530      6.01641         0.000163     -0.000364      0.000218
    total drift:                                0.001864      0.000854     -0.001425

  FREE ENERGIE OF THE ION-ELECTRON SYSTEM (eV)
  free  energy   TOTEN  =      -268.63707573 eV

  energy  without entropy=     -268.63707573  energy(sigma->0) =     -268.63707573

 d Force = 0.4029048E-06[ 0.544E-07, 0.751E-06]  d Energy = 0.1053206E-05-0.650E-06
 d Force = 0.8612919E-01[ 0.861E-01, 0.861E-01]  d Ewald  = 0.9605763E-02 0.765E-01

 stress matrix after NEB project (eV)
     -0.02531      0.00000     -0.00600
      0.00000     -0.01865      0.00000
     -0.00600      0.00000     -0.02709
  FORCES: max atom, RMS     0.000861    0.000492
  FORCE total and by dimension    0.003410    0.000702
  Stress total and by dimension    0.042357    0.027090
 Quasi-Newton relaxation of ions (Broydens 2nd method)
  g(Force)  = 0.561E-06   g(Stress)= 0.180E-05

 retain information from N=  1 steps
 eigenvalues of (default step * inverse Hessian matrix)
  average eigenvalue of G=   0.1240
 eigenvalue spectrum of G is  0.1240

 reached required accuracy - stopping structural energy minimisation

 total charge

[...]

 magnetization (x)

# of ion     s       p       d       tot
  1        0.014   0.012   1.659   1.686
  2        0.014   0.012   1.659   1.686
  3       -0.014  -0.012  -1.659  -1.686
  4       -0.014  -0.012  -1.659  -1.686
  5        0.014   0.012   1.659   1.686
  6        0.014   0.012   1.659   1.686
  7       -0.014  -0.012  -1.659  -1.686
  8       -0.014  -0.012  -1.659  -1.686
  9       -0.003  -0.001   0.000  -0.004
 10       -0.003  -0.001   0.000  -0.004
 11        0.003   0.001   0.000   0.004
 12        0.003   0.001   0.000   0.004
 13       -0.000   0.000   0.000  -0.000
 14       -0.000   0.000   0.000  -0.000
 15       -0.000   0.000   0.000  -0.000
 16       -0.000   0.000   0.000  -0.000
 17        0.000   0.000   0.000   0.000
 18        0.000   0.000   0.000   0.000
 19        0.000   0.000   0.000   0.000
 20        0.000   0.000   0.000   0.000
 21       -0.000   0.000   0.000  -0.000
 22       -0.000   0.000   0.000  -0.000
 23       -0.000   0.000   0.000  -0.000
 24       -0.000   0.000   0.000  -0.000
 25        0.002   0.095   0.000   0.097
 26        0.002   0.095   0.000   0.097
 27       -0.002  -0.095   0.000  -0.097
 28       -0.002  -0.095   0.000  -0.097
 29        0.002   0.095   0.000   0.097
 30        0.002   0.095   0.000   0.097
 31       -0.002  -0.095   0.000  -0.097
 32       -0.002  -0.095   0.000  -0.097
 33        0.002   0.104   0.000   0.106
 34        0.002   0.104   0.000   0.106
 35       -0.002  -0.104   0.000  -0.106
 36       -0.002  -0.104   0.000  -0.106
 37        0.002   0.104   0.000   0.106
 38        0.002   0.104   0.000   0.106
 39       -0.002  -0.104   0.000  -0.106
 40       -0.002  -0.104   0.000  -0.106
 41        0.001   0.048   0.000   0.049
 42        0.001   0.048   0.000   0.049
 43       -0.001  -0.048   0.000  -0.049
 44       -0.001  -0.048   0.000  -0.049
 45        0.001   0.048   0.000   0.049
 46        0.001   0.048   0.000   0.049
 47       -0.001  -0.048   0.000  -0.049
 48       -0.001  -0.048   0.000  -0.049
tot       -0.000   0.001  -0.001   0.000